1000
100 100
1 80 302
2 80 531
3 80 211
4 80 467
5 80 642
6 80 534
7 80 648
8 80 728
9 80 326
10 80 716
11 80 297
12 80 441
13 80 975
14 80 26
15 80 739
16 80 95
17 80 575
18 80 772
19 80 130
20 80 416
21 80 327
22 80 275
23 79 501
24 79 628
25 79 743
26 79 482
27 79 887
28 79 984
29 79 67
30 79 909
31 79 978
32 79 146
33 79 967
34 79 26
35 79 341
36 79 324
37 79 660
38 79 868
39 79 741
40 78 214
41 78 91
42 78 666
43 78 540
44 78 255
45 78 873
46 78 813
47 78 798
48 78 551
49 78 576
50 78 886
51 78 92
52 78 363
53 78 759
54 78 392
55 78 484
56 78 275
57 78 138
58 78 61
59 78 557
60 78 688
61 78 647
62 77 400
63 77 749
64 77 542
65 77 18
66 77 554
67 77 329
68 77 29
69 77 96
70 77 689
71 77 202
72 77 714
73 77 144
74 77 182
75 77 567
76 77 4
77 77 839
78 76 533
79 76 200
80 76 984
81 76 752
82 76 823
83 76 147
84 76 119
85 76 705
86 76 990
87 76 329
88 76 999
89 76 1000
90 76 845
91 76 983
92 76 623
93 75 210
94 75 382
95 75 479
96 75 474
97 75 521
98 75 404
99 75 382
100 75 741
101 75 872
102 75 797
103 75 797
104 75 71
105 75 933
106 75 469
107 75 257
108 75 777
109 75 536
110 75 116
111 75 53
112 75 23
113 75 938
114 75 865
115 75 263
116 75 517
117 74 403
118 74 40
119 74 94
120 74 800
121 74 60
122 74 753
123 74 166
124 74 134
125 74 988
126 74 908
127 74 463
128 74 167
129 74 771
130 74 795
131 74 469
132 74 596
133 74 980
134 73 313
135 73 802
136 73 555
137 73 250
138 73 91
139 73 138
140 73 229
141 73 236
142 73 402
143 73 272
144 73 585
145 73 577
146 72 490
147 72 855
148 72 778
149 72 133
150 72 32
151 72 217
152 72 584
153 72 626
154 71 683
155 71 154
156 71 517
157 71 524
158 71 873
159 71 928
160 71 465
161 71 961
162 71 253
163 71 716
164 71 344
165 71 762
166 71 128
167 71 184
168 71 755
169 71 144
170 71 408
171 71 848
172 71 740
173 71 9
174 71 807
175 70 50
176 70 854
177 70 678
178 70 999
179 70 143
180 70 534
181 70 218
182 70 204
183 70 869
184 70 669
185 70 941
186 70 408
187 70 714
188 70 622
189 70 528
190 69 644
191 69 155
192 69 569
193 69 939
194 69 682
195 69 989
196 69 315
197 69 376
198 69 845
199 69 935
200 69 551
201 69 63
202 69 581
203 69 393
204 69 210
205 69 302
206 69 189
207 69 191
208 69 427
209 69 591
210 69 923
211 69 578
212 69 804
213 68 965
214 68 273
215 68 861
216 68 751
217 68 201
218 68 574
219 68 230
220 68 834
221 68 318
222 68 425
223 68 148
224 67 871
225 67 917
226 67 167
227 67 617
228 67 316
229 67 892
230 67 931
231 67 642
232 67 447
233 67 531
234 67 354
235 67 266
236 67 644
237 67 36
238 67 970
239 67 396
240 66 79
241 66 46
242 66 6
243 66 16
244 66 932
245 66 944
246 66 212
247 66 981
248 66 384
249 66 474
250 66 620
251 66 426
252 66 599
253 66 34
254 66 955
255 66 227
256 66 943
257 65 178
258 65 373
259 65 549
260 65 681
261 65 823
262 65 185
263 65 165
264 65 502
265 65 841
266 65 0
267 65 586
268 65 275
269 65 912
270 65 1
271 65 182
272 65 335
273 65 643
274 64 1
275 64 960
276 64 249
277 64 350
278 64 16
279 64 58
280 64 870
281 64 501
282 64 150
283 64 245
284 64 322
285 64 482
286 64 995
287 64 713
288 64 660
289 64 411
290 64 850
291 64 300
292 64 327
293 64 489
294 64 882
295 64 560
296 64 298
297 64 739
298 63 124
299 63 970
300 63 703
301 63 662
302 63 256
303 63 747
304 63 850
305 63 595
306 63 44
307 63 129
308 63 997
309 63 448
310 63 153
311 63 635
312 63 699
313 63 138
314 63 997
315 63 87
316 63 250
317 63 341
318 63 563
319 62 58
320 62 419
321 62 120
322 62 332
323 62 483
324 62 925
325 62 735
326 62 118
327 62 214
328 62 366
329 62 412
330 62 708
331 62 538
332 62 370
333 62 687
334 62 409
335 61 495
336 61 891
337 61 617
338 61 374
339 61 888
340 61 582
341 61 505
342 61 415
343 61 366
344 61 775
345 61 529
346 61 758
347 61 682
348 61 695
349 61 326
350 61 193
351 61 873
352 61 665
353 61 335
354 60 350
355 60 154
356 60 283
357 60 987
358 60 167
359 60 58
360 60 508
361 59 864
362 59 347
363 59 541
364 59 212
365 59 968
366 59 964
367 59 282
368 59 630
369 59 448
370 59 384
371 59 785
372 59 988
373 59 168
374 58 393
375 58 290
376 58 751
377 58 212
378 58 466
379 58 607
380 58 733
381 58 378
382 58 768
383 58 703
384 58 697
385 58 677
386 58 710
387 58 869
388 58 680
389 58 135
390 58 84
391 58 633
392 58 823
393 58 434
394 58 475
395 58 558
396 58 12
397 57 153
398 57 295
399 57 479
400 57 202
401 57 67
402 57 282
403 57 965
404 57 326
405 57 725
406 57 668
407 57 25
408 57 511
409 57 730
410 57 943
411 57 713
412 57 816
413 57 232
414 57 463
415 56 899
416 56 938
417 56 186
418 56 529
419 56 294
420 56 485
421 56 664
422 56 474
423 56 427
424 56 982
425 56 405
426 56 805
427 56 114
428 56 611
429 56 826
430 56 0
431 56 120
432 56 550
433 56 500
434 56 953
435 56 710
436 56 309
437 56 120
438 56 999
439 55 214
440 55 238
441 55 133
442 55 751
443 55 955
444 55 841
445 55 591
446 55 109
447 55 37
448 55 367
449 55 990
450 55 325
451 55 309
452 55 837
453 55 238
454 55 714
455 55 818
456 54 98
457 54 349
458 54 373
459 54 153
460 54 762
461 54 105
462 54 577
463 54 206
464 54 232
465 54 101
466 53 859
467 53 60
468 53 333
469 53 538
470 53 869
471 53 114
472 53 339
473 53 509
474 53 362
475 53 283
476 53 911
477 53 789
478 53 570
479 52 312
480 52 402
481 52 294
482 52 644
483 52 911
484 52 61
485 52 903
486 52 707
487 52 199
488 52 230
489 52 234
490 52 497
491 52 403
492 52 542
493 51 383
494 51 935
495 51 737
496 51 160
497 51 520
498 51 264
499 51 153
500 51 951
501 51 885
502 51 471
503 51 953
504 51 387
505 51 957
506 51 500
507 51 379
508 51 594
509 51 835
510 51 443
511 50 991
512 50 474
513 50 333
514 50 863
515 50 55
516 50 730
517 50 124
518 50 518
519 50 784
520 50 724
521 50 237
522 50 909
523 50 864
524 49 376
525 49 412
526 49 36
527 49 190
528 49 467
529 49 633
530 49 196
531 49 964
532 49 752
533 49 754
534 49 748
535 48 693
536 48 327
537 48 69
538 48 622
539 48 866
540 48 433
541 48 725
542 48 459
543 48 422
544 48 689
545 48 387
546 48 914
547 48 246
548 48 373
549 48 188
550 48 599
551 48 184
552 47 370
553 47 32
554 47 959
555 47 538
556 47 832
557 47 853
558 47 289
559 47 354
560 47 548
561 47 87
562 47 614
563 47 165
564 47 114
565 47 906
566 47 211
567 47 946
568 47 866
569 47 193
570 47 507
571 47 913
572 47 619
573 46 604
574 46 661
575 46 151
576 46 488
577 46 584
578 46 406
579 46 235
580 46 676
581 46 701
582 46 174
583 46 103
584 46 909
585 46 646
586 46 925
587 45 732
588 45 45
589 45 201
590 45 251
591 45 446
592 45 247
593 45 835
594 45 452
595 45 875
596 45 929
597 45 929
598 45 992
599 45 571
600 45 456
601 45 624
602 45 845
603 45 951
604 45 860
605 45 427
606 45 732
607 45 615
608 45 988
609 44 337
610 44 682
611 44 948
612 44 450
613 44 902
614 44 983
615 44 558
616 44 641
617 44 33
618 44 164
619 44 598
620 44 276
621 44 445
622 43 417
623 43 352
624 43 47
625 43 854
626 43 518
627 43 105
628 43 589
629 43 898
630 43 287
631 43 72
632 43 838
633 43 709
634 43 577
635 43 869
636 43 57
637 43 245
638 43 648
639 43 616
640 43 585
641 43 416
642 43 673
643 43 430
644 43 913
645 42 509
646 42 167
647 42 549
648 42 219
649 42 163
650 42 391
651 42 737
652 42 935
653 42 477
654 42 709
655 42 919
656 42 756
657 42 105
658 42 604
659 42 338
660 42 843
661 42 881
662 41 686
663 41 469
664 41 142
665 41 410
666 41 252
667 41 882
668 41 86
669 41 982
670 41 957
671 41 572
672 41 359
673 41 821
674 41 243
675 41 516
676 41 600
677 41 472
678 41 246
679 41 787
680 41 706
681 40 168
682 40 937
683 40 689
684 40 406
685 40 821
686 40 934
687 40 953
688 40 778
689 40 276
690 40 94
691 40 941
692 40 801
693 40 662
694 40 535
695 40 490
696 40 550
697 40 249
698 40 796
699 40 67
700 39 28
701 39 51
702 39 905
703 39 376
704 39 630
705 39 869
706 39 507
707 39 109
708 39 655
709 39 220
710 39 266
711 39 257
712 39 83
713 39 928
714 39 486
715 39 196
716 39 730
717 39 975
718 39 845
719 38 909
720 38 699
721 38 295
722 38 632
723 38 191
724 38 794
725 38 353
726 38 223
727 38 571
728 38 797
729 38 909
730 38 590
731 38 609
732 38 162
733 38 87
734 38 483
735 38 362
736 38 621
737 37 398
738 37 407
739 37 740
740 37 802
741 37 791
742 37 525
743 37 807
744 37 688
745 37 503
746 37 415
747 37 585
748 37 919
749 36 87
750 36 226
751 36 312
752 36 779
753 36 83
754 36 935
755 36 233
756 36 227
757 36 981
758 36 902
759 35 371
760 35 845
761 35 59
762 35 352
763 35 664
764 35 749
765 35 865
766 35 256
767 35 681
768 35 463
769 35 1000
770 35 825
771 35 990
772 35 516
773 35 342
774 34 70
775 34 131
776 34 721
777 34 884
778 34 601
779 34 173
780 34 136
781 34 915
782 34 253
783 34 672
784 34 939
785 34 773
786 34 185
787 34 902
788 33 944
789 33 12
790 33 484
791 33 615
792 33 47
793 33 875
794 33 51
795 33 425
796 33 31
797 33 699
798 33 212
799 33 464
800 33 300
801 33 448
802 33 5
803 33 318
804 33 151
805 32 887
806 32 205
807 32 721
808 32 890
809 32 3
810 32 960
811 32 316
812 32 458
813 32 305
814 32 833
815 32 49
816 32 956
817 32 299
818 32 971
819 32 861
820 32 315
821 31 49
822 31 569
823 31 805
824 31 729
825 31 456
826 31 769
827 31 59
828 31 30
829 31 683
830 31 722
831 31 610
832 31 473
833 31 446
834 31 196
835 31 869
836 31 446
837 31 485
838 30 377
839 30 582
840 30 912
841 30 112
842 30 574
843 30 372
844 30 870
845 30 385
846 30 300
847 30 825
848 30 451
849 30 539
850 30 727
851 30 42
852 29 272
853 29 188
854 29 986
855 29 54
856 29 118
857 29 913
858 29 524
859 29 452
860 29 286
861 29 595
862 28 133
863 28 311
864 28 865
865 28 928
866 28 459
867 28 210
868 28 639
869 28 368
870 28 150
871 28 804
872 28 787
873 28 927
874 28 635
875 28 583
876 28 17
877 28 437
878 27 276
879 27 822
880 27 128
881 27 838
882 27 89
883 27 448
884 27 965
885 27 677
886 27 908
887 27 582
888 27 669
889 27 506
890 27 71
891 26 961
892 26 918
893 26 250
894 26 393
895 26 616
896 26 35
897 26 510
898 26 841
899 26 865
900 26 751
901 26 250
902 25 371
903 25 585
904 25 461
905 25 106
906 25 197
907 25 474
908 25 974
909 25 232
910 25 682
911 25 173
912 25 117
913 25 109
914 25 500
915 25 801
916 25 79
917 25 16
918 24 615
919 24 485
920 24 848
921 24 894
922 24 765
923 24 303
924 24 932
925 24 25
926 24 891
927 24 248
928 24 702
929 24 192
930 24 216
931 24 861
932 24 761
933 24 143
934 24 607
935 24 555
936 24 50
937 23 63
938 23 35
939 23 486
940 23 112
941 23 730
942 23 930
943 23 892
944 23 467
945 23 322
946 23 123
947 23 575
948 23 680
949 22 451
950 22 280
951 22 936
952 22 373
953 22 28
954 22 33
955 22 524
956 22 942
957 22 481
958 22 211
959 22 502
960 22 73
961 22 165
962 22 292
963 22 885
964 22 364
965 22 839
966 22 986
967 22 200
968 22 200
969 22 302
970 21 329
971 21 270
972 21 14
973 21 373
974 21 124
975 21 204
976 21 926
977 21 322
978 21 705
979 21 80
980 21 287
981 21 891
982 21 599
983 21 758
984 21 491
985 20 962
986 20 593
987 20 880
988 20 909
989 20 450
990 20 584
991 20 284
992 20 497
993 20 800
994 20 328
995 20 164
996 20 781
997 20 110
998 20 612
999 20 620
1000 20 17
